\ENCODING=ISO-8859-1
\Problem name: ilog.cplex

Minimize
 obj1: 104312 x1 + 106184 x2 + 94745 x3 + 109558 x4 + 107197 x5 + 105371 x6
       + 100618 x7 + 101343 x8 + 104319 x9 + 105818 x10 + 97783 x11
       + 106316 x12 + 94150 x13 + 102384 x14 + 109967 x15 + 99504 x16
       + 96570 x17 + 108958 x18 + 107745 x19 + 104925 x20 + 108233 x21
       + 103283 x22 + 92547 x23 + 98069 x24 + 93179 x25 + 90465 x26 + 91608 x27
       + 103688 x28 + 99946 x29 + 95054 x30 + 91134 x31 + 106454 x32
       + 102380 x33 + 107039 x34 + 91239 x35 + 90307 x36 + 92921 x37
       + 93218 x38 + 98059 x39 + 101234 x40 + 94369 x41 + 102159 x42
       + 96032 x43 + 107816 x44 + 98944 x45 + 98298 x46 + 106415 x47
       + 93993 x48 + 91932 x49 + 98762 x50 + 96925 x51 + 99362 x52 + 91262 x53
       + 95048 x54 + 101757 x55 + 103691 x56 + 94103 x57 + 100996 x58
       + 101264 x59 + 94429 x60 + 98636 x61 + 106019 x62 + 91376 x63
       + 92957 x64 + 104075 x65 + 93509 x66 + 94298 x67 + 92143 x68 + 98130 x69
       + 93194 x70 + 94673 x71 + 107378 x72 + 97760 x73 + 102002 x74
       + 91177 x75 + 106783 x76 + 108878 x77 + 103417 x78 + 104851 x79
       + 95469 x80 + 99351 x81 + 109755 x82 + 97700 x83 + 95668 x84 + 96227 x85
       + 104465 x86 + 96401 x87 + 96501 x88 + 104870 x89 + 106007 x90
       + 93803 x91 + 95957 x92 + 95323 x93 + 90841 x94 + 106384 x95
       + 103935 x96 + 109572 x97 + 94596 x98 + 101939 x99 + 97104 x100
       + 92253 x101 + 97748 x102 + 98517 x103 + 93844 x104 + 96932 x105
       + 94931 x106 + 92992 x107 + 90672 x108 + 90264 x109 + 105480 x110
       + 105625 x111 + 90353 x112 + 107105 x113 + 106871 x114 + 105608 x115
       + 96254 x116 + 101124 x117 + 102460 x118 + 91802 x119 + 107541 x120
       + 105470 x121 + 106715 x122 + 100108 x123 + 100586 x124 + 92261 x125
       + 92757 x126 + 94486 x127 + 94365 x128 + 90980 x129 + 100919 x130
       + 97752 x131 + 100501 x132 + 97335 x133 + 107509 x134 + 99788 x135
       + 99835 x136 + 92469 x137 + 106901 x138 + 100780 x139 + 104269 x140
       + 99574 x141 + 108191 x142 + 94308 x143 + 109294 x144 + 96567 x145
       + 109838 x146 + 100240 x147 + 103046 x148 + 102077 x149 + 107785 x150
       + 99293 x151 + 107390 x152 + 92638 x153 + 90197 x154 + 107093 x155
       + 101987 x156 + 105257 x157 + 90290 x158 + 97142 x159 + 108464 x160
       + 91412 x161 + 107621 x162 + 99312 x163 + 108484 x164 + 96062 x165
       + 107767 x166 + 103315 x167 + 96934 x168 + 98399 x169 + 90518 x170
       + 105043 x171 + 109396 x172 + 109822 x173 + 97479 x174 + 107788 x175
       + 91703 x176 + 99040 x177 + 91416 x178 + 90018 x179 + 98604 x180
       + 98442 x181 + 97559 x182 + 93171 x183 + 102442 x184 + 101220 x185
       + 109651 x186 + 97994 x187 + 90172 x188 + 98558 x189 + 96449 x190
       + 96106 x191 + 93531 x192 + 105771 x193 + 105968 x194 + 91787 x195
       + 96178 x196 + 108675 x197 + 108570 x198 + 101151 x199 + 96927 x200
       + 100693 x201 + 99155 x202 + 90107 x203 + 107554 x204 + 109475 x205
       + 98785 x206 + 109078 x207 + 95188 x208 + 96462 x209 + 98297 x210
       + 97760 x211 + 91458 x212 + 107700 x213 + 97116 x214 + 100892 x215
       + 106540 x216 + 99689 x217 + 96752 x218 + 104308 x219 + 107821 x220
       + 100170 x221 + 90344 x222 + 109461 x223 + 90118 x224 + 90504 x225
       + 107153 x226 + 94166 x227 + 97208 x228 + 93621 x229 + 104030 x230
       + 97477 x231 + 92885 x232 + 99566 x233 + 104679 x234 + 97432 x235
       + 103849 x236 + 99211 x237 + 91898 x238 + 101800 x239 + 106433 x240
       + 104511 x241 + 105509 x242 + 94534 x243 + 109293 x244 + 106872 x245
       + 102710 x246 + 92629 x247 + 108747 x248 + 98953 x249 + 98798 x250
       + 94358 x251 + 94196 x252 + 96009 x253 + 100056 x254 + 95300 x255
       + 99718 x256 + 102636 x257 + 104531 x258 + 98815 x259 + 92145 x260
       + 107026 x261 + 104782 x262 + 95219 x263 + 107990 x264 + 107408 x265
       + 108747 x266 + 108755 x267 + 90893 x268 + 102842 x269 + 94968 x270
       + 100243 x271 + 100681 x272 + 100856 x273 + 103294 x274 + 93924 x275
       + 102822 x276 + 100387 x277 + 97664 x278 + 93284 x279 + 105358 x280
       + 100047 x281 + 103680 x282 + 102558 x283 + 109321 x284 + 98975 x285
       + 100431 x286 + 98104 x287 + 98188 x288 + 100333 x289 + 93379 x290
       + 97001 x291 + 92111 x292 + 95980 x293 + 93117 x294 + 108999 x295
       + 93452 x296 + 104947 x297 + 93418 x298 + 92316 x299 + 91589 x300
       + 96993 x301 + 106087 x302 + 101084 x303 + 99837 x304 + 97274 x305
       + 100863 x306 + 97134 x307 + 104831 x308 + 91176 x309 + 93180 x310
       + 106568 x311 + 102623 x312 + 100434 x313 + 96237 x314 + 100652 x315
       + 96693 x316 + 103954 x317 + 109046 x318 + 101374 x319 + 94753 x320
       + 103967 x321 + 108761 x322 + 104999 x323 + 96316 x324 + 99584 x325
       + 99652 x326 + 97331 x327 + 101425 x328 + 109621 x329 + 91206 x330
       + 109764 x331 + 93739 x332 + 93615 x333 + 108167 x334 + 100026 x335
       + 101815 x336 + 107621 x337 + 91268 x338 + 107051 x339 + 108667 x340
       + 99684 x341 + 109016 x342 + 105494 x343 + 101638 x344 + 98798 x345
       + 108076 x346 + 92161 x347 + 92056 x348 + 100733 x349 + 102640 x350
       + 93983 x351 + 107375 x352 + 104273 x353 + 101632 x354 + 95150 x355
       + 107213 x356 + 102198 x357 + 96663 x358 + 99636 x359 + 99110 x360
       + 109867 x361 + 109764 x362 + 104170 x363 + 99907 x364 + 103939 x365
       + 100846 x366 + 101122 x367 + 99842 x368 + 91653 x369 + 99266 x370
       + 94795 x371 + 93539 x372 + 96899 x373 + 105426 x374 + 96452 x375
       + 93207 x376 + 96469 x377 + 91296 x378 + 99334 x379 + 100943 x380
       + 101365 x381 + 94891 x382 + 97965 x383 + 108235 x384 + 104159 x385
       + 108114 x386 + 93569 x387 + 105792 x388 + 105886 x389 + 107619 x390
       + 98387 x391 + 105560 x392 + 100979 x393 + 95437 x394 + 92020 x395
       + 101673 x396 + 99386 x397 + 93773 x398 + 108866 x399 + 92571 x400
       + 101286 x401 + 96667 x402 + 107324 x403 + 92608 x404 + 91713 x405
       + 100164 x406 + 108615 x407 + 98250 x408 + 109921 x409 + 92164 x410
       + 95939 x411 + 101287 x412 + 91463 x413 + 103316 x414 + 93107 x415
       + 99504 x416 + 99724 x417 + 101117 x418 + 95888 x419 + 103838 x420
       + 100322 x421 + 103641 x422 + 108611 x423 + 107225 x424 + 94949 x425
       + 109971 x426 + 95899 x427 + 109219 x428 + 90084 x429 + 105875 x430
       + 105449 x431 + 90958 x432 + 92192 x433 + 96198 x434 + 95768 x435
       + 105715 x436 + 92345 x437 + 101540 x438 + 93324 x439 + 107098 x440
       + 93363 x441 + 102702 x442 + 108007 x443 + 104240 x444 + 100437 x445
       + 99253 x446 + 92911 x447 + 97562 x448 + 105662 x449 + 90996 x450
       + 105889 x451 + 108213 x452 + 101194 x453 + 106147 x454 + 97457 x455
       + 104620 x456 + 90557 x457 + 90706 x458 + 97230 x459 + 105544 x460
       + 93155 x461 + 99720 x462 + 99447 x463 + 100597 x464 + 93145 x465
       + 93087 x466 + 96992 x467 + 96419 x468 + 90545 x469 + 96015 x470
       + 102931 x471 + 109521 x472 + 109849 x473 + 97456 x474 + 108722 x475
       + 105250 x476 + 109387 x477 + 108543 x478 + 99077 x479 + 106444 x480
       + 105021 x481 + 97060 x482 + 97442 x483 + 107542 x484 + 105104 x485
       + 98038 x486 + 99344 x487 + 101107 x488 + 107213 x489 + 91630 x490
       + 93285 x491 + 91230 x492 + 109667 x493 + 96446 x494 + 108521 x495
       + 104666 x496 + 95524 x497 + 102290 x498 + 105027 x499 + 97018 x500
       + 91228 x501 + 97778 x502 + 107498 x503 + 101846 x504 + 106585 x505
       + 107228 x506 + 106519 x507 + 100032 x508 + 94783 x509 + 90067 x510
       + 91005 x511 + 94702 x512 + 105861 x513 + 90265 x514 + 101049 x515
       + 94040 x516 + 107375 x517 + 108171 x518 + 90937 x519 + 102044 x520
       + 91966 x521 + 102571 x522 + 108373 x523 + 95551 x524 + 103114 x525
       + 96976 x526 + 107860 x527 + 104780 x528 + 107570 x529 + 100804 x530
       + 103674 x531 + 94201 x532 + 105783 x533 + 103553 x534 + 91044 x535
       + 100726 x536 + 100119 x537 + 97997 x538 + 102907 x539 + 106985 x540
       + 108921 x541 + 100560 x542 + 108512 x543 + 93994 x544 + 98936 x545
       + 104672 x546 + 100489 x547 + 97379 x548 + 108554 x549 + 93278 x550
       + 93400 x551 + 98306 x552 + 97813 x553 + 95388 x554 + 102281 x555
       + 96477 x556 + 102565 x557 + 95450 x558 + 97491 x559 + 91892 x560
       + 95387 x561 + 91535 x562 + 102969 x563 + 94806 x564 + 101003 x565
       + 109018 x566 + 94539 x567 + 100915 x568 + 92893 x569 + 98755 x570
       + 94349 x571 + 91179 x572 + 104222 x573 + 93484 x574 + 101752 x575
       + 90733 x576 + 93236 x577 + 106514 x578 + 95805 x579 + 91962 x580
       + 90987 x581 + 92721 x582 + 90046 x583 + 93094 x584 + 107518 x585
       + 93434 x586 + 96347 x587 + 105559 x588 + 101575 x589 + 94028 x590
       + 101326 x591 + 100887 x592 + 108480 x593 + 95854 x594 + 96234 x595
       + 101044 x596 + 90942 x597 + 102602 x598 + 109150 x599 + 184809 x600
       + 386466 x601 + 366959 x602 + 407424 x603 + 398823 x604 + 428085 x605
       + 403845 x606 + 394178 x607 + 364651 x608 + 383012 x609 + 403951 x610
       + 369649 x611 + 388061 x612 + 415807 x613 + 362806 x614 + 377263 x615
       + 389346 x616 + 370200 x617 + 363174 x618 + 410344 x619 + 403572 x620
       + 403601 x621 + 375156 x622 + 389389 x623 + 403585 x624 + 368223 x625
       + 423348 x626 + 417017 x627 + 410154 x628 + 366719 x629 + 400625 x630
       + 428530 x631 + 378571 x632 + 372223 x633 + 414463 x634 + 391760 x635
       + 381073 x636 + 392092 x637 + 385534 x638 + 413046 x639 + 422066 x640
       + 371652 x641 + 399627 x642 + 396931 x643 + 388169 x644 + 398665 x645
       + 402793 x646 + 405327 x647 + 387708 x648 + 381195 x649 + 425937 x650
       + 367630 x651 + 394355 x652 + 391024 x653 + 388884 x654 + 426463 x655
       + 397172 x656 + 371696 x657 + 385321 x658 + 404416 x659 + 790244 x660
Subject To
 c1:   - x8 + x10 - x18 - x23 - x24 + x29 + x31 + x33 + x34 + x36 - x38 + x48
       - x56 - x59  = 0
 c2:   - x68 + x70 - x78 - x83 - x84 + x89 + x91 + x93 + x94 + x96 - x98 + x108
       - x116 - x119  = 0
 c3:   - x128 + x130 - x138 - x143 - x144 + x149 + x151 + x153 + x154 + x156
       - x158 + x168 - x176 - x179  = 1
 c4:   - x188 + x190 - x198 - x203 - x204 + x209 + x211 + x213 + x214 + x216
       - x218 + x228 - x236 - x239  = 0
 c5:   - x248 + x250 - x258 - x263 - x264 + x269 + x271 + x273 + x274 + x276
       - x278 + x288 - x296 - x299  = 0
 c6:   - x308 + x310 - x318 - x323 - x324 + x329 + x331 + x333 + x334 + x336
       - x338 + x348 - x356 - x359  = 0
 c7:   - x368 + x370 - x378 - x383 - x384 + x389 + x391 + x393 + x394 + x396
       - x398 + x408 - x416 - x419  = 0
 c8:   - x428 + x430 - x438 - x443 - x444 + x449 + x451 + x453 + x454 + x456
       - x458 + x468 - x476 - x479  = 1
 c9:   - x488 + x490 - x498 - x503 - x504 + x509 + x511 + x513 + x514 + x516
       - x518 + x528 - x536 - x539  = 0
 c10:  - x548 + x550 - x558 - x563 - x564 + x569 + x571 + x573 + x574 + x576
       - x578 + x588 - x596 - x599  = 0
 c11:  - x4 + x5 - x12 + x14 + x18 + x19 - x22 + x28 - x34 + x39  = 0
 c12:  - x64 + x65 - x72 + x74 + x78 + x79 - x82 + x88 - x94 + x99  = 0
 c13:  - x124 + x125 - x132 + x134 + x138 + x139 - x142 + x148 - x154 + x159
        = 0
 c14:  - x184 + x185 - x192 + x194 + x198 + x199 - x202 + x208 - x214 + x219
        = 0
 c15:  - x244 + x245 - x252 + x254 + x258 + x259 - x262 + x268 - x274 + x279
        = 0
 c16:  - x304 + x305 - x312 + x314 + x318 + x319 - x322 + x328 - x334 + x339
        = 0
 c17:  - x364 + x365 - x372 + x374 + x378 + x379 - x382 + x388 - x394 + x399
        = 0
 c18:  - x424 + x425 - x432 + x434 + x438 + x439 - x442 + x448 - x454 + x459
        = 0
 c19:  - x484 + x485 - x492 + x494 + x498 + x499 - x502 + x508 - x514 + x519
        = 0
 c20:  - x544 + x545 - x552 + x554 + x558 + x559 - x562 + x568 - x574 + x579
        = 0
 c21:  - x2 - x11 - x14 + x22 + x23 + x27 + x30 - x36 - x40 + x51 + x52 - x53
       - x54 - x57 + x58  = 0
 c22:  - x62 - x71 - x74 + x82 + x83 + x87 + x90 - x96 - x100 + x111 + x112
       - x113 - x114 - x117 + x118  = 0
 c23:  - x122 - x131 - x134 + x142 + x143 + x147 + x150 - x156 - x160 + x171
       + x172 - x173 - x174 - x177 + x178  = 0
 c24:  - x182 - x191 - x194 + x202 + x203 + x207 + x210 - x216 - x220 + x231
       + x232 - x233 - x234 - x237 + x238  = 0
 c25:  - x242 - x251 - x254 + x262 + x263 + x267 + x270 - x276 - x280 + x291
       + x292 - x293 - x294 - x297 + x298  = 0
 c26:  - x302 - x311 - x314 + x322 + x323 + x327 + x330 - x336 - x340 + x351
       + x352 - x353 - x354 - x357 + x358  = 0
 c27:  - x362 - x371 - x374 + x382 + x383 + x387 + x390 - x396 - x400 + x411
       + x412 - x413 - x414 - x417 + x418  = -1
 c28:  - x422 - x431 - x434 + x442 + x443 + x447 + x450 - x456 - x460 + x471
       + x472 - x473 - x474 - x477 + x478  = 0
 c29:  - x482 - x491 - x494 + x502 + x503 + x507 + x510 - x516 - x520 + x531
       + x532 - x533 - x534 - x537 + x538  = -1
 c30:  - x542 - x551 - x554 + x562 + x563 + x567 + x570 - x576 - x580 + x591
       + x592 - x593 - x594 - x597 + x598  = 0
 c31:  x1 - x3 - x19 + x21 + x24 + x26 - x33 - x42 + x57 - x58 - x60  = -1
 c32:  x61 - x63 - x79 + x81 + x84 + x86 - x93 - x102 + x117 - x118 - x120
        = -1
 c33:  x121 - x123 - x139 + x141 + x144 + x146 - x153 - x162 + x177 - x178
       - x180  = 0
 c34:  x181 - x183 - x199 + x201 + x204 + x206 - x213 - x222 + x237 - x238
       - x240  = -1
 c35:  x241 - x243 - x259 + x261 + x264 + x266 - x273 - x282 + x297 - x298
       - x300  = 0
 c36:  x301 - x303 - x319 + x321 + x324 + x326 - x333 - x342 + x357 - x358
       - x360  = 0
 c37:  x361 - x363 - x379 + x381 + x384 + x386 - x393 - x402 + x417 - x418
       - x420  = 0
 c38:  x421 - x423 - x439 + x441 + x444 + x446 - x453 - x462 + x477 - x478
       - x480  = 0
 c39:  x481 - x483 - x499 + x501 + x504 + x506 - x513 - x522 + x537 - x538
       - x540  = 0
 c40:  x541 - x543 - x559 + x561 + x564 + x566 - x573 - x582 + x597 - x598
       - x600  = 1
 c41:  x2 - x6 + x7 + x20 + x25 - x31 - x32 - x39 + x41 + x42 - x43 - x51  = 0
 c42:  x62 - x66 + x67 + x80 + x85 - x91 - x92 - x99 + x101 + x102 - x103
       - x111  = 1
 c43:  x122 - x126 + x127 + x140 + x145 - x151 - x152 - x159 + x161 + x162
       - x163 - x171  = 0
 c44:  x182 - x186 + x187 + x200 + x205 - x211 - x212 - x219 + x221 + x222
       - x223 - x231  = 0
 c45:  x242 - x246 + x247 + x260 + x265 - x271 - x272 - x279 + x281 + x282
       - x283 - x291  = 1
 c46:  x302 - x306 + x307 + x320 + x325 - x331 - x332 - x339 + x341 + x342
       - x343 - x351  = 0
 c47:  x362 - x366 + x367 + x380 + x385 - x391 - x392 - x399 + x401 + x402
       - x403 - x411  = 0
 c48:  x422 - x426 + x427 + x440 + x445 - x451 - x452 - x459 + x461 + x462
       - x463 - x471  = 0
 c49:  x482 - x486 + x487 + x500 + x505 - x511 - x512 - x519 + x521 + x522
       - x523 - x531  = 0
 c50:  x542 - x546 + x547 + x560 + x565 - x571 - x572 - x579 + x581 + x582
       - x583 - x591  = 0
 c51:  x8 - x9 - x21 - x30 + x32 + x35 - x37 + x40 + x44 + x46 - x49  = 0
 c52:  x68 - x69 - x81 - x90 + x92 + x95 - x97 + x100 + x104 + x106 - x109  = 0
 c53:  x128 - x129 - x141 - x150 + x152 + x155 - x157 + x160 + x164 + x166
       - x169  = 0
 c54:  x188 - x189 - x201 - x210 + x212 + x215 - x217 + x220 + x224 + x226
       - x229  = 1
 c55:  x248 - x249 - x261 - x270 + x272 + x275 - x277 + x280 + x284 + x286
       - x289  = 0
 c56:  x308 - x309 - x321 - x330 + x332 + x335 - x337 + x340 + x344 + x346
       - x349  = 1
 c57:  x368 - x369 - x381 - x390 + x392 + x395 - x397 + x400 + x404 + x406
       - x409  = 0
 c58:  x428 - x429 - x441 - x450 + x452 + x455 - x457 + x460 + x464 + x466
       - x469  = 0
 c59:  x488 - x489 - x501 - x510 + x512 + x515 - x517 + x520 + x524 + x526
       - x529  = 0
 c60:  x548 - x549 - x561 - x570 + x572 + x575 - x577 + x580 + x584 + x586
       - x589  = 0
 c61:  - x1 + x3 + x4 + x6 - x7 - x10 + x16 - x17 + x38 - x44 + x47 + x49 - x50
       - x52 + x53 + x55  = 1
 c62:  - x61 + x63 + x64 + x66 - x67 - x70 + x76 - x77 + x98 - x104 + x107
       + x109 - x110 - x112 + x113 + x115  = 0
 c63:  - x121 + x123 + x124 + x126 - x127 - x130 + x136 - x137 + x158 - x164
       + x167 + x169 - x170 - x172 + x173 + x175  = -1
 c64:  - x181 + x183 + x184 + x186 - x187 - x190 + x196 - x197 + x218 - x224
       + x227 + x229 - x230 - x232 + x233 + x235  = 0
 c65:  - x241 + x243 + x244 + x246 - x247 - x250 + x256 - x257 + x278 - x284
       + x287 + x289 - x290 - x292 + x293 + x295  = 0
 c66:  - x301 + x303 + x304 + x306 - x307 - x310 + x316 - x317 + x338 - x344
       + x347 + x349 - x350 - x352 + x353 + x355  = -1
 c67:  - x361 + x363 + x364 + x366 - x367 - x370 + x376 - x377 + x398 - x404
       + x407 + x409 - x410 - x412 + x413 + x415  = 1
 c68:  - x421 + x423 + x424 + x426 - x427 - x430 + x436 - x437 + x458 - x464
       + x467 + x469 - x470 - x472 + x473 + x475  = 0
 c69:  - x481 + x483 + x484 + x486 - x487 - x490 + x496 - x497 + x518 - x524
       + x527 + x529 - x530 - x532 + x533 + x535  = 0
 c70:  - x541 + x543 + x544 + x546 - x547 - x550 + x556 - x557 + x578 - x584
       + x587 + x589 - x590 - x592 + x593 + x595  = -1
 c71:  x9 + x11 + x12 - x13 + x17 - x25 + x45 - x47 - x48 + x59 + x60  = 0
 c72:  x69 + x71 + x72 - x73 + x77 - x85 + x105 - x107 - x108 + x119 + x120
        = 0
 c73:  x129 + x131 + x132 - x133 + x137 - x145 + x165 - x167 - x168 + x179
       + x180  = 0
 c74:  x189 + x191 + x192 - x193 + x197 - x205 + x225 - x227 - x228 + x239
       + x240  = 0
 c75:  x249 + x251 + x252 - x253 + x257 - x265 + x285 - x287 - x288 + x299
       + x300  = -1
 c76:  x309 + x311 + x312 - x313 + x317 - x325 + x345 - x347 - x348 + x359
       + x360  = 0
 c77:  x369 + x371 + x372 - x373 + x377 - x385 + x405 - x407 - x408 + x419
       + x420  = 0
 c78:  x429 + x431 + x432 - x433 + x437 - x445 + x465 - x467 - x468 + x479
       + x480  = 0
 c79:  x489 + x491 + x492 - x493 + x497 - x505 + x525 - x527 - x528 + x539
       + x540  = 0
 c80:  x549 + x551 + x552 - x553 + x557 - x565 + x585 - x587 - x588 + x599
       + x600  = 0
 c81:  x13 + x15 - x16 - x20 - x26 - x27 - x28 + x37 - x45 - x46 + x54  = 0
 c82:  x73 + x75 - x76 - x80 - x86 - x87 - x88 + x97 - x105 - x106 + x114  = 0
 c83:  x133 + x135 - x136 - x140 - x146 - x147 - x148 + x157 - x165 - x166
       + x174  = 0
 c84:  x193 + x195 - x196 - x200 - x206 - x207 - x208 + x217 - x225 - x226
       + x234  = 0
 c85:  x253 + x255 - x256 - x260 - x266 - x267 - x268 + x277 - x285 - x286
       + x294  = 0
 c86:  x313 + x315 - x316 - x320 - x326 - x327 - x328 + x337 - x345 - x346
       + x354  = 0
 c87:  x373 + x375 - x376 - x380 - x386 - x387 - x388 + x397 - x405 - x406
       + x414  = 0
 c88:  x433 + x435 - x436 - x440 - x446 - x447 - x448 + x457 - x465 - x466
       + x474  = 0
 c89:  x493 + x495 - x496 - x500 - x506 - x507 - x508 + x517 - x525 - x526
       + x534  = 1
 c90:  x553 + x555 - x556 - x560 - x566 - x567 - x568 + x577 - x585 - x586
       + x594  = 0
 c91:  - x5 - x15 - x29 - x35 - x41 + x43 + x50 - x55 + x56  = 0
 c92:  - x65 - x75 - x89 - x95 - x101 + x103 + x110 - x115 + x116  = 0
 c93:  - x125 - x135 - x149 - x155 - x161 + x163 + x170 - x175 + x176  = 0
 c94:  - x185 - x195 - x209 - x215 - x221 + x223 + x230 - x235 + x236  = 0
 c95:  - x245 - x255 - x269 - x275 - x281 + x283 + x290 - x295 + x296  = 0
 c96:  - x305 - x315 - x329 - x335 - x341 + x343 + x350 - x355 + x356  = 0
 c97:  - x365 - x375 - x389 - x395 - x401 + x403 + x410 - x415 + x416  = 0
 c98:  - x425 - x435 - x449 - x455 - x461 + x463 + x470 - x475 + x476  = -1
 c99:  - x485 - x495 - x509 - x515 - x521 + x523 + x530 - x535 + x536  = 0
 c100: - x545 - x555 - x569 - x575 - x581 + x583 + x590 - x595 + x596  = 0
 c101: 4 x1 + 4 x61 + 4 x121 + 4 x181 + 4 x241 + 4 x301 + 4 x361 + 4 x421
       + 4 x481 + 4 x541 - 18 x601 <= 0
 c102: 4 x2 + 4 x62 + 4 x122 + 4 x182 + 4 x242 + 4 x302 + 4 x362 + 4 x422
       + 4 x482 + 4 x542 - 18 x602 <= 0
 c103: 4 x3 + 4 x63 + 4 x123 + 4 x183 + 4 x243 + 4 x303 + 4 x363 + 4 x423
       + 4 x483 + 4 x543 - 20 x603 <= 0
 c104: 4 x4 + 4 x64 + 4 x124 + 4 x184 + 4 x244 + 4 x304 + 4 x364 + 4 x424
       + 4 x484 + 4 x544 - 19 x604 <= 0
 c105: 4 x5 + 4 x65 + 4 x125 + 4 x185 + 4 x245 + 4 x305 + 4 x365 + 4 x425
       + 4 x485 + 4 x545 - 20 x605 <= 0
 c106: 4 x6 + 4 x66 + 4 x126 + 4 x186 + 4 x246 + 4 x306 + 4 x366 + 4 x426
       + 4 x486 + 4 x546 - 21 x606 <= 0
 c107: 4 x7 + 4 x67 + 4 x127 + 4 x187 + 4 x247 + 4 x307 + 4 x367 + 4 x427
       + 4 x487 + 4 x547 - 20 x607 <= 0
 c108: 4 x8 + 4 x68 + 4 x128 + 4 x188 + 4 x248 + 4 x308 + 4 x368 + 4 x428
       + 4 x488 + 4 x548 - 22 x608 <= 0
 c109: 4 x9 + 4 x69 + 4 x129 + 4 x189 + 4 x249 + 4 x309 + 4 x369 + 4 x429
       + 4 x489 + 4 x549 - 18 x609 <= 0
 c110: 4 x10 + 4 x70 + 4 x130 + 4 x190 + 4 x250 + 4 x310 + 4 x370 + 4 x430
       + 4 x490 + 4 x550 - 20 x610 <= 0
 c111: 4 x11 + 4 x71 + 4 x131 + 4 x191 + 4 x251 + 4 x311 + 4 x371 + 4 x431
       + 4 x491 + 4 x551 - 21 x611 <= 0
 c112: 4 x12 + 4 x72 + 4 x132 + 4 x192 + 4 x252 + 4 x312 + 4 x372 + 4 x432
       + 4 x492 + 4 x552 - 19 x612 <= 0
 c113: 4 x13 + 4 x73 + 4 x133 + 4 x193 + 4 x253 + 4 x313 + 4 x373 + 4 x433
       + 4 x493 + 4 x553 - 18 x613 <= 0
 c114: 4 x14 + 4 x74 + 4 x134 + 4 x194 + 4 x254 + 4 x314 + 4 x374 + 4 x434
       + 4 x494 + 4 x554 - 19 x614 <= 0
 c115: 4 x15 + 4 x75 + 4 x135 + 4 x195 + 4 x255 + 4 x315 + 4 x375 + 4 x435
       + 4 x495 + 4 x555 - 22 x615 <= 0
 c116: 4 x16 + 4 x76 + 4 x136 + 4 x196 + 4 x256 + 4 x316 + 4 x376 + 4 x436
       + 4 x496 + 4 x556 - 22 x616 <= 0
 c117: 4 x17 + 4 x77 + 4 x137 + 4 x197 + 4 x257 + 4 x317 + 4 x377 + 4 x437
       + 4 x497 + 4 x557 - 22 x617 <= 0
 c118: 4 x18 + 4 x78 + 4 x138 + 4 x198 + 4 x258 + 4 x318 + 4 x378 + 4 x438
       + 4 x498 + 4 x558 - 21 x618 <= 0
 c119: 4 x19 + 4 x79 + 4 x139 + 4 x199 + 4 x259 + 4 x319 + 4 x379 + 4 x439
       + 4 x499 + 4 x559 - 19 x619 <= 0
 c120: 4 x20 + 4 x80 + 4 x140 + 4 x200 + 4 x260 + 4 x320 + 4 x380 + 4 x440
       + 4 x500 + 4 x560 - 19 x620 <= 0
 c121: 4 x21 + 4 x81 + 4 x141 + 4 x201 + 4 x261 + 4 x321 + 4 x381 + 4 x441
       + 4 x501 + 4 x561 - 18 x621 <= 0
 c122: 4 x22 + 4 x82 + 4 x142 + 4 x202 + 4 x262 + 4 x322 + 4 x382 + 4 x442
       + 4 x502 + 4 x562 - 18 x622 <= 0
 c123: 4 x23 + 4 x83 + 4 x143 + 4 x203 + 4 x263 + 4 x323 + 4 x383 + 4 x443
       + 4 x503 + 4 x563 - 20 x623 <= 0
 c124: 4 x24 + 4 x84 + 4 x144 + 4 x204 + 4 x264 + 4 x324 + 4 x384 + 4 x444
       + 4 x504 + 4 x564 - 20 x624 <= 0
 c125: 4 x25 + 4 x85 + 4 x145 + 4 x205 + 4 x265 + 4 x325 + 4 x385 + 4 x445
       + 4 x505 + 4 x565 - 21 x625 <= 0
 c126: 4 x26 + 4 x86 + 4 x146 + 4 x206 + 4 x266 + 4 x326 + 4 x386 + 4 x446
       + 4 x506 + 4 x566 - 19 x626 <= 0
 c127: 4 x27 + 4 x87 + 4 x147 + 4 x207 + 4 x267 + 4 x327 + 4 x387 + 4 x447
       + 4 x507 + 4 x567 - 21 x627 <= 0
 c128: 4 x28 + 4 x88 + 4 x148 + 4 x208 + 4 x268 + 4 x328 + 4 x388 + 4 x448
       + 4 x508 + 4 x568 - 18 x628 <= 0
 c129: 4 x29 + 4 x89 + 4 x149 + 4 x209 + 4 x269 + 4 x329 + 4 x389 + 4 x449
       + 4 x509 + 4 x569 - 20 x629 <= 0
 c130: 4 x30 + 4 x90 + 4 x150 + 4 x210 + 4 x270 + 4 x330 + 4 x390 + 4 x450
       + 4 x510 + 4 x570 - 18 x630 <= 0
 c131: 4 x31 + 4 x91 + 4 x151 + 4 x211 + 4 x271 + 4 x331 + 4 x391 + 4 x451
       + 4 x511 + 4 x571 - 19 x631 <= 0
 c132: 4 x32 + 4 x92 + 4 x152 + 4 x212 + 4 x272 + 4 x332 + 4 x392 + 4 x452
       + 4 x512 + 4 x572 - 19 x632 <= 0
 c133: 4 x33 + 4 x93 + 4 x153 + 4 x213 + 4 x273 + 4 x333 + 4 x393 + 4 x453
       + 4 x513 + 4 x573 - 18 x633 <= 0
 c134: 4 x34 + 4 x94 + 4 x154 + 4 x214 + 4 x274 + 4 x334 + 4 x394 + 4 x454
       + 4 x514 + 4 x574 - 18 x634 <= 0
 c135: 4 x35 + 4 x95 + 4 x155 + 4 x215 + 4 x275 + 4 x335 + 4 x395 + 4 x455
       + 4 x515 + 4 x575 - 21 x635 <= 0
 c136: 4 x36 + 4 x96 + 4 x156 + 4 x216 + 4 x276 + 4 x336 + 4 x396 + 4 x456
       + 4 x516 + 4 x576 - 19 x636 <= 0
 c137: 4 x37 + 4 x97 + 4 x157 + 4 x217 + 4 x277 + 4 x337 + 4 x397 + 4 x457
       + 4 x517 + 4 x577 - 20 x637 <= 0
 c138: 4 x38 + 4 x98 + 4 x158 + 4 x218 + 4 x278 + 4 x338 + 4 x398 + 4 x458
       + 4 x518 + 4 x578 - 21 x638 <= 0
 c139: 4 x39 + 4 x99 + 4 x159 + 4 x219 + 4 x279 + 4 x339 + 4 x399 + 4 x459
       + 4 x519 + 4 x579 - 20 x639 <= 0
 c140: 4 x40 + 4 x100 + 4 x160 + 4 x220 + 4 x280 + 4 x340 + 4 x400 + 4 x460
       + 4 x520 + 4 x580 - 21 x640 <= 0
 c141: 4 x41 + 4 x101 + 4 x161 + 4 x221 + 4 x281 + 4 x341 + 4 x401 + 4 x461
       + 4 x521 + 4 x581 - 20 x641 <= 0
 c142: 4 x42 + 4 x102 + 4 x162 + 4 x222 + 4 x282 + 4 x342 + 4 x402 + 4 x462
       + 4 x522 + 4 x582 - 20 x642 <= 0
 c143: 4 x43 + 4 x103 + 4 x163 + 4 x223 + 4 x283 + 4 x343 + 4 x403 + 4 x463
       + 4 x523 + 4 x583 - 19 x643 <= 0
 c144: 4 x44 + 4 x104 + 4 x164 + 4 x224 + 4 x284 + 4 x344 + 4 x404 + 4 x464
       + 4 x524 + 4 x584 - 19 x644 <= 0
 c145: 4 x45 + 4 x105 + 4 x165 + 4 x225 + 4 x285 + 4 x345 + 4 x405 + 4 x465
       + 4 x525 + 4 x585 - 19 x645 <= 0
 c146: 4 x46 + 4 x106 + 4 x166 + 4 x226 + 4 x286 + 4 x346 + 4 x406 + 4 x466
       + 4 x526 + 4 x586 - 19 x646 <= 0
 c147: 4 x47 + 4 x107 + 4 x167 + 4 x227 + 4 x287 + 4 x347 + 4 x407 + 4 x467
       + 4 x527 + 4 x587 - 19 x647 <= 0
 c148: 4 x48 + 4 x108 + 4 x168 + 4 x228 + 4 x288 + 4 x348 + 4 x408 + 4 x468
       + 4 x528 + 4 x588 - 22 x648 <= 0
 c149: 4 x49 + 4 x109 + 4 x169 + 4 x229 + 4 x289 + 4 x349 + 4 x409 + 4 x469
       + 4 x529 + 4 x589 - 21 x649 <= 0
 c150: 4 x50 + 4 x110 + 4 x170 + 4 x230 + 4 x290 + 4 x350 + 4 x410 + 4 x470
       + 4 x530 + 4 x590 - 22 x650 <= 0
 c151: 4 x51 + 4 x111 + 4 x171 + 4 x231 + 4 x291 + 4 x351 + 4 x411 + 4 x471
       + 4 x531 + 4 x591 - 19 x651 <= 0
 c152: 4 x52 + 4 x112 + 4 x172 + 4 x232 + 4 x292 + 4 x352 + 4 x412 + 4 x472
       + 4 x532 + 4 x592 - 18 x652 <= 0
 c153: 4 x53 + 4 x113 + 4 x173 + 4 x233 + 4 x293 + 4 x353 + 4 x413 + 4 x473
       + 4 x533 + 4 x593 - 20 x653 <= 0
 c154: 4 x54 + 4 x114 + 4 x174 + 4 x234 + 4 x294 + 4 x354 + 4 x414 + 4 x474
       + 4 x534 + 4 x594 - 19 x654 <= 0
 c155: 4 x55 + 4 x115 + 4 x175 + 4 x235 + 4 x295 + 4 x355 + 4 x415 + 4 x475
       + 4 x535 + 4 x595 - 18 x655 <= 0
 c156: 4 x56 + 4 x116 + 4 x176 + 4 x236 + 4 x296 + 4 x356 + 4 x416 + 4 x476
       + 4 x536 + 4 x596 - 19 x656 <= 0
 c157: 4 x57 + 4 x117 + 4 x177 + 4 x237 + 4 x297 + 4 x357 + 4 x417 + 4 x477
       + 4 x537 + 4 x597 - 21 x657 <= 0
 c158: 4 x58 + 4 x118 + 4 x178 + 4 x238 + 4 x298 + 4 x358 + 4 x418 + 4 x478
       + 4 x538 + 4 x598 - 21 x658 <= 0
 c159: 4 x59 + 4 x119 + 4 x179 + 4 x239 + 4 x299 + 4 x359 + 4 x419 + 4 x479
       + 4 x539 + 4 x599 - 22 x659 <= 0
 c160: 4 x60 + 4 x120 + 4 x180 + 4 x240 + 4 x300 + 4 x360 + 4 x420 + 4 x480
       + 4 x540 + 4 x600 - 36 x660 <= 0
Bounds
 0 <= x1 <= 1
 0 <= x2 <= 1
 0 <= x3 <= 1
 0 <= x4 <= 1
 0 <= x5 <= 1
 0 <= x6 <= 1
 0 <= x7 <= 1
 0 <= x8 <= 1
 0 <= x9 <= 1
 0 <= x10 <= 1
 0 <= x11 <= 1
 0 <= x12 <= 1
 0 <= x13 <= 1
 0 <= x14 <= 1
 0 <= x15 <= 1
 0 <= x16 <= 1
 0 <= x17 <= 1
 0 <= x18 <= 1
 0 <= x19 <= 1
 0 <= x20 <= 1
 0 <= x21 <= 1
 0 <= x22 <= 1
 0 <= x23 <= 1
 0 <= x24 <= 1
 0 <= x25 <= 1
 0 <= x26 <= 1
 0 <= x27 <= 1
 0 <= x28 <= 1
 0 <= x29 <= 1
 0 <= x30 <= 1
 0 <= x31 <= 1
 0 <= x32 <= 1
 0 <= x33 <= 1
 0 <= x34 <= 1
 0 <= x35 <= 1
 0 <= x36 <= 1
 0 <= x37 <= 1
 0 <= x38 <= 1
 0 <= x39 <= 1
 0 <= x40 <= 1
 0 <= x41 <= 1
 0 <= x42 <= 1
 0 <= x43 <= 1
 0 <= x44 <= 1
 0 <= x45 <= 1
 0 <= x46 <= 1
 0 <= x47 <= 1
 0 <= x48 <= 1
 0 <= x49 <= 1
 0 <= x50 <= 1
 0 <= x51 <= 1
 0 <= x52 <= 1
 0 <= x53 <= 1
 0 <= x54 <= 1
 0 <= x55 <= 1
 0 <= x56 <= 1
 0 <= x57 <= 1
 0 <= x58 <= 1
 0 <= x59 <= 1
 0 <= x60 <= 1
 0 <= x61 <= 1
 0 <= x62 <= 1
 0 <= x63 <= 1
 0 <= x64 <= 1
 0 <= x65 <= 1
 0 <= x66 <= 1
 0 <= x67 <= 1
 0 <= x68 <= 1
 0 <= x69 <= 1
 0 <= x70 <= 1
 0 <= x71 <= 1
 0 <= x72 <= 1
 0 <= x73 <= 1
 0 <= x74 <= 1
 0 <= x75 <= 1
 0 <= x76 <= 1
 0 <= x77 <= 1
 0 <= x78 <= 1
 0 <= x79 <= 1
 0 <= x80 <= 1
 0 <= x81 <= 1
 0 <= x82 <= 1
 0 <= x83 <= 1
 0 <= x84 <= 1
 0 <= x85 <= 1
 0 <= x86 <= 1
 0 <= x87 <= 1
 0 <= x88 <= 1
 0 <= x89 <= 1
 0 <= x90 <= 1
 0 <= x91 <= 1
 0 <= x92 <= 1
 0 <= x93 <= 1
 0 <= x94 <= 1
 0 <= x95 <= 1
 0 <= x96 <= 1
 0 <= x97 <= 1
 0 <= x98 <= 1
 0 <= x99 <= 1
 0 <= x100 <= 1
 0 <= x101 <= 1
 0 <= x102 <= 1
 0 <= x103 <= 1
 0 <= x104 <= 1
 0 <= x105 <= 1
 0 <= x106 <= 1
 0 <= x107 <= 1
 0 <= x108 <= 1
 0 <= x109 <= 1
 0 <= x110 <= 1
 0 <= x111 <= 1
 0 <= x112 <= 1
 0 <= x113 <= 1
 0 <= x114 <= 1
 0 <= x115 <= 1
 0 <= x116 <= 1
 0 <= x117 <= 1
 0 <= x118 <= 1
 0 <= x119 <= 1
 0 <= x120 <= 1
 0 <= x121 <= 1
 0 <= x122 <= 1
 0 <= x123 <= 1
 0 <= x124 <= 1
 0 <= x125 <= 1
 0 <= x126 <= 1
 0 <= x127 <= 1
 0 <= x128 <= 1
 0 <= x129 <= 1
 0 <= x130 <= 1
 0 <= x131 <= 1
 0 <= x132 <= 1
 0 <= x133 <= 1
 0 <= x134 <= 1
 0 <= x135 <= 1
 0 <= x136 <= 1
 0 <= x137 <= 1
 0 <= x138 <= 1
 0 <= x139 <= 1
 0 <= x140 <= 1
 0 <= x141 <= 1
 0 <= x142 <= 1
 0 <= x143 <= 1
 0 <= x144 <= 1
 0 <= x145 <= 1
 0 <= x146 <= 1
 0 <= x147 <= 1
 0 <= x148 <= 1
 0 <= x149 <= 1
 0 <= x150 <= 1
 0 <= x151 <= 1
 0 <= x152 <= 1
 0 <= x153 <= 1
 0 <= x154 <= 1
 0 <= x155 <= 1
 0 <= x156 <= 1
 0 <= x157 <= 1
 0 <= x158 <= 1
 0 <= x159 <= 1
 0 <= x160 <= 1
 0 <= x161 <= 1
 0 <= x162 <= 1
 0 <= x163 <= 1
 0 <= x164 <= 1
 0 <= x165 <= 1
 0 <= x166 <= 1
 0 <= x167 <= 1
 0 <= x168 <= 1
 0 <= x169 <= 1
 0 <= x170 <= 1
 0 <= x171 <= 1
 0 <= x172 <= 1
 0 <= x173 <= 1
 0 <= x174 <= 1
 0 <= x175 <= 1
 0 <= x176 <= 1
 0 <= x177 <= 1
 0 <= x178 <= 1
 0 <= x179 <= 1
 0 <= x180 <= 1
 0 <= x181 <= 1
 0 <= x182 <= 1
 0 <= x183 <= 1
 0 <= x184 <= 1
 0 <= x185 <= 1
 0 <= x186 <= 1
 0 <= x187 <= 1
 0 <= x188 <= 1
 0 <= x189 <= 1
 0 <= x190 <= 1
 0 <= x191 <= 1
 0 <= x192 <= 1
 0 <= x193 <= 1
 0 <= x194 <= 1
 0 <= x195 <= 1
 0 <= x196 <= 1
 0 <= x197 <= 1
 0 <= x198 <= 1
 0 <= x199 <= 1
 0 <= x200 <= 1
 0 <= x201 <= 1
 0 <= x202 <= 1
 0 <= x203 <= 1
 0 <= x204 <= 1
 0 <= x205 <= 1
 0 <= x206 <= 1
 0 <= x207 <= 1
 0 <= x208 <= 1
 0 <= x209 <= 1
 0 <= x210 <= 1
 0 <= x211 <= 1
 0 <= x212 <= 1
 0 <= x213 <= 1
 0 <= x214 <= 1
 0 <= x215 <= 1
 0 <= x216 <= 1
 0 <= x217 <= 1
 0 <= x218 <= 1
 0 <= x219 <= 1
 0 <= x220 <= 1
 0 <= x221 <= 1
 0 <= x222 <= 1
 0 <= x223 <= 1
 0 <= x224 <= 1
 0 <= x225 <= 1
 0 <= x226 <= 1
 0 <= x227 <= 1
 0 <= x228 <= 1
 0 <= x229 <= 1
 0 <= x230 <= 1
 0 <= x231 <= 1
 0 <= x232 <= 1
 0 <= x233 <= 1
 0 <= x234 <= 1
 0 <= x235 <= 1
 0 <= x236 <= 1
 0 <= x237 <= 1
 0 <= x238 <= 1
 0 <= x239 <= 1
 0 <= x240 <= 1
 0 <= x241 <= 1
 0 <= x242 <= 1
 0 <= x243 <= 1
 0 <= x244 <= 1
 0 <= x245 <= 1
 0 <= x246 <= 1
 0 <= x247 <= 1
 0 <= x248 <= 1
 0 <= x249 <= 1
 0 <= x250 <= 1
 0 <= x251 <= 1
 0 <= x252 <= 1
 0 <= x253 <= 1
 0 <= x254 <= 1
 0 <= x255 <= 1
 0 <= x256 <= 1
 0 <= x257 <= 1
 0 <= x258 <= 1
 0 <= x259 <= 1
 0 <= x260 <= 1
 0 <= x261 <= 1
 0 <= x262 <= 1
 0 <= x263 <= 1
 0 <= x264 <= 1
 0 <= x265 <= 1
 0 <= x266 <= 1
 0 <= x267 <= 1
 0 <= x268 <= 1
 0 <= x269 <= 1
 0 <= x270 <= 1
 0 <= x271 <= 1
 0 <= x272 <= 1
 0 <= x273 <= 1
 0 <= x274 <= 1
 0 <= x275 <= 1
 0 <= x276 <= 1
 0 <= x277 <= 1
 0 <= x278 <= 1
 0 <= x279 <= 1
 0 <= x280 <= 1
 0 <= x281 <= 1
 0 <= x282 <= 1
 0 <= x283 <= 1
 0 <= x284 <= 1
 0 <= x285 <= 1
 0 <= x286 <= 1
 0 <= x287 <= 1
 0 <= x288 <= 1
 0 <= x289 <= 1
 0 <= x290 <= 1
 0 <= x291 <= 1
 0 <= x292 <= 1
 0 <= x293 <= 1
 0 <= x294 <= 1
 0 <= x295 <= 1
 0 <= x296 <= 1
 0 <= x297 <= 1
 0 <= x298 <= 1
 0 <= x299 <= 1
 0 <= x300 <= 1
 0 <= x301 <= 1
 0 <= x302 <= 1
 0 <= x303 <= 1
 0 <= x304 <= 1
 0 <= x305 <= 1
 0 <= x306 <= 1
 0 <= x307 <= 1
 0 <= x308 <= 1
 0 <= x309 <= 1
 0 <= x310 <= 1
 0 <= x311 <= 1
 0 <= x312 <= 1
 0 <= x313 <= 1
 0 <= x314 <= 1
 0 <= x315 <= 1
 0 <= x316 <= 1
 0 <= x317 <= 1
 0 <= x318 <= 1
 0 <= x319 <= 1
 0 <= x320 <= 1
 0 <= x321 <= 1
 0 <= x322 <= 1
 0 <= x323 <= 1
 0 <= x324 <= 1
 0 <= x325 <= 1
 0 <= x326 <= 1
 0 <= x327 <= 1
 0 <= x328 <= 1
 0 <= x329 <= 1
 0 <= x330 <= 1
 0 <= x331 <= 1
 0 <= x332 <= 1
 0 <= x333 <= 1
 0 <= x334 <= 1
 0 <= x335 <= 1
 0 <= x336 <= 1
 0 <= x337 <= 1
 0 <= x338 <= 1
 0 <= x339 <= 1
 0 <= x340 <= 1
 0 <= x341 <= 1
 0 <= x342 <= 1
 0 <= x343 <= 1
 0 <= x344 <= 1
 0 <= x345 <= 1
 0 <= x346 <= 1
 0 <= x347 <= 1
 0 <= x348 <= 1
 0 <= x349 <= 1
 0 <= x350 <= 1
 0 <= x351 <= 1
 0 <= x352 <= 1
 0 <= x353 <= 1
 0 <= x354 <= 1
 0 <= x355 <= 1
 0 <= x356 <= 1
 0 <= x357 <= 1
 0 <= x358 <= 1
 0 <= x359 <= 1
 0 <= x360 <= 1
 0 <= x361 <= 1
 0 <= x362 <= 1
 0 <= x363 <= 1
 0 <= x364 <= 1
 0 <= x365 <= 1
 0 <= x366 <= 1
 0 <= x367 <= 1
 0 <= x368 <= 1
 0 <= x369 <= 1
 0 <= x370 <= 1
 0 <= x371 <= 1
 0 <= x372 <= 1
 0 <= x373 <= 1
 0 <= x374 <= 1
 0 <= x375 <= 1
 0 <= x376 <= 1
 0 <= x377 <= 1
 0 <= x378 <= 1
 0 <= x379 <= 1
 0 <= x380 <= 1
 0 <= x381 <= 1
 0 <= x382 <= 1
 0 <= x383 <= 1
 0 <= x384 <= 1
 0 <= x385 <= 1
 0 <= x386 <= 1
 0 <= x387 <= 1
 0 <= x388 <= 1
 0 <= x389 <= 1
 0 <= x390 <= 1
 0 <= x391 <= 1
 0 <= x392 <= 1
 0 <= x393 <= 1
 0 <= x394 <= 1
 0 <= x395 <= 1
 0 <= x396 <= 1
 0 <= x397 <= 1
 0 <= x398 <= 1
 0 <= x399 <= 1
 0 <= x400 <= 1
 0 <= x401 <= 1
 0 <= x402 <= 1
 0 <= x403 <= 1
 0 <= x404 <= 1
 0 <= x405 <= 1
 0 <= x406 <= 1
 0 <= x407 <= 1
 0 <= x408 <= 1
 0 <= x409 <= 1
 0 <= x410 <= 1
 0 <= x411 <= 1
 0 <= x412 <= 1
 0 <= x413 <= 1
 0 <= x414 <= 1
 0 <= x415 <= 1
 0 <= x416 <= 1
 0 <= x417 <= 1
 0 <= x418 <= 1
 0 <= x419 <= 1
 0 <= x420 <= 1
 0 <= x421 <= 1
 0 <= x422 <= 1
 0 <= x423 <= 1
 0 <= x424 <= 1
 0 <= x425 <= 1
 0 <= x426 <= 1
 0 <= x427 <= 1
 0 <= x428 <= 1
 0 <= x429 <= 1
 0 <= x430 <= 1
 0 <= x431 <= 1
 0 <= x432 <= 1
 0 <= x433 <= 1
 0 <= x434 <= 1
 0 <= x435 <= 1
 0 <= x436 <= 1
 0 <= x437 <= 1
 0 <= x438 <= 1
 0 <= x439 <= 1
 0 <= x440 <= 1
 0 <= x441 <= 1
 0 <= x442 <= 1
 0 <= x443 <= 1
 0 <= x444 <= 1
 0 <= x445 <= 1
 0 <= x446 <= 1
 0 <= x447 <= 1
 0 <= x448 <= 1
 0 <= x449 <= 1
 0 <= x450 <= 1
 0 <= x451 <= 1
 0 <= x452 <= 1
 0 <= x453 <= 1
 0 <= x454 <= 1
 0 <= x455 <= 1
 0 <= x456 <= 1
 0 <= x457 <= 1
 0 <= x458 <= 1
 0 <= x459 <= 1
 0 <= x460 <= 1
 0 <= x461 <= 1
 0 <= x462 <= 1
 0 <= x463 <= 1
 0 <= x464 <= 1
 0 <= x465 <= 1
 0 <= x466 <= 1
 0 <= x467 <= 1
 0 <= x468 <= 1
 0 <= x469 <= 1
 0 <= x470 <= 1
 0 <= x471 <= 1
 0 <= x472 <= 1
 0 <= x473 <= 1
 0 <= x474 <= 1
 0 <= x475 <= 1
 0 <= x476 <= 1
 0 <= x477 <= 1
 0 <= x478 <= 1
 0 <= x479 <= 1
 0 <= x480 <= 1
 0 <= x481 <= 1
 0 <= x482 <= 1
 0 <= x483 <= 1
 0 <= x484 <= 1
 0 <= x485 <= 1
 0 <= x486 <= 1
 0 <= x487 <= 1
 0 <= x488 <= 1
 0 <= x489 <= 1
 0 <= x490 <= 1
 0 <= x491 <= 1
 0 <= x492 <= 1
 0 <= x493 <= 1
 0 <= x494 <= 1
 0 <= x495 <= 1
 0 <= x496 <= 1
 0 <= x497 <= 1
 0 <= x498 <= 1
 0 <= x499 <= 1
 0 <= x500 <= 1
 0 <= x501 <= 1
 0 <= x502 <= 1
 0 <= x503 <= 1
 0 <= x504 <= 1
 0 <= x505 <= 1
 0 <= x506 <= 1
 0 <= x507 <= 1
 0 <= x508 <= 1
 0 <= x509 <= 1
 0 <= x510 <= 1
 0 <= x511 <= 1
 0 <= x512 <= 1
 0 <= x513 <= 1
 0 <= x514 <= 1
 0 <= x515 <= 1
 0 <= x516 <= 1
 0 <= x517 <= 1
 0 <= x518 <= 1
 0 <= x519 <= 1
 0 <= x520 <= 1
 0 <= x521 <= 1
 0 <= x522 <= 1
 0 <= x523 <= 1
 0 <= x524 <= 1
 0 <= x525 <= 1
 0 <= x526 <= 1
 0 <= x527 <= 1
 0 <= x528 <= 1
 0 <= x529 <= 1
 0 <= x530 <= 1
 0 <= x531 <= 1
 0 <= x532 <= 1
 0 <= x533 <= 1
 0 <= x534 <= 1
 0 <= x535 <= 1
 0 <= x536 <= 1
 0 <= x537 <= 1
 0 <= x538 <= 1
 0 <= x539 <= 1
 0 <= x540 <= 1
 0 <= x541 <= 1
 0 <= x542 <= 1
 0 <= x543 <= 1
 0 <= x544 <= 1
 0 <= x545 <= 1
 0 <= x546 <= 1
 0 <= x547 <= 1
 0 <= x548 <= 1
 0 <= x549 <= 1
 0 <= x550 <= 1
 0 <= x551 <= 1
 0 <= x552 <= 1
 0 <= x553 <= 1
 0 <= x554 <= 1
 0 <= x555 <= 1
 0 <= x556 <= 1
 0 <= x557 <= 1
 0 <= x558 <= 1
 0 <= x559 <= 1
 0 <= x560 <= 1
 0 <= x561 <= 1
 0 <= x562 <= 1
 0 <= x563 <= 1
 0 <= x564 <= 1
 0 <= x565 <= 1
 0 <= x566 <= 1
 0 <= x567 <= 1
 0 <= x568 <= 1
 0 <= x569 <= 1
 0 <= x570 <= 1
 0 <= x571 <= 1
 0 <= x572 <= 1
 0 <= x573 <= 1
 0 <= x574 <= 1
 0 <= x575 <= 1
 0 <= x576 <= 1
 0 <= x577 <= 1
 0 <= x578 <= 1
 0 <= x579 <= 1
 0 <= x580 <= 1
 0 <= x581 <= 1
 0 <= x582 <= 1
 0 <= x583 <= 1
 0 <= x584 <= 1
 0 <= x585 <= 1
 0 <= x586 <= 1
 0 <= x587 <= 1
 0 <= x588 <= 1
 0 <= x589 <= 1
 0 <= x590 <= 1
 0 <= x591 <= 1
 0 <= x592 <= 1
 0 <= x593 <= 1
 0 <= x594 <= 1
 0 <= x595 <= 1
 0 <= x596 <= 1
 0 <= x597 <= 1
 0 <= x598 <= 1
 0 <= x599 <= 1
 0 <= x600 <= 1
 0 <= x601 <= 1
 0 <= x602 <= 1
 0 <= x603 <= 1
 0 <= x604 <= 1
 0 <= x605 <= 1
 0 <= x606 <= 1
 0 <= x607 <= 1
 0 <= x608 <= 1
 0 <= x609 <= 1
 0 <= x610 <= 1
 0 <= x611 <= 1
 0 <= x612 <= 1
 0 <= x613 <= 1
 0 <= x614 <= 1
 0 <= x615 <= 1
 0 <= x616 <= 1
 0 <= x617 <= 1
 0 <= x618 <= 1
 0 <= x619 <= 1
 0 <= x620 <= 1
 0 <= x621 <= 1
 0 <= x622 <= 1
 0 <= x623 <= 1
 0 <= x624 <= 1
 0 <= x625 <= 1
 0 <= x626 <= 1
 0 <= x627 <= 1
 0 <= x628 <= 1
 0 <= x629 <= 1
 0 <= x630 <= 1
 0 <= x631 <= 1
 0 <= x632 <= 1
 0 <= x633 <= 1
 0 <= x634 <= 1
 0 <= x635 <= 1
 0 <= x636 <= 1
 0 <= x637 <= 1
 0 <= x638 <= 1
 0 <= x639 <= 1
 0 <= x640 <= 1
 0 <= x641 <= 1
 0 <= x642 <= 1
 0 <= x643 <= 1
 0 <= x644 <= 1
 0 <= x645 <= 1
 0 <= x646 <= 1
 0 <= x647 <= 1
 0 <= x648 <= 1
 0 <= x649 <= 1
 0 <= x650 <= 1
 0 <= x651 <= 1
 0 <= x652 <= 1
 0 <= x653 <= 1
 0 <= x654 <= 1
 0 <= x655 <= 1
 0 <= x656 <= 1
 0 <= x657 <= 1
 0 <= x658 <= 1
 0 <= x659 <= 1
 0 <= x660 <= 1
Binaries
 x601  x602  x603  x604  x605  x606  x607  x608  x609  x610  x611  x612  x613 
 x614  x615  x616  x617  x618  x619  x620  x621  x622  x623  x624  x625  x626 
 x627  x628  x629  x630  x631  x632  x633  x634  x635  x636  x637  x638  x639 
 x640  x641  x642  x643  x644  x645  x646  x647  x648  x649  x650  x651  x652 
 x653  x654  x655  x656  x657  x658  x659  x660 
End
